;; Original file: term_167.smt2
(set-logic HORN)
(declare-fun starexecinv1 (Real Real Real) Bool)

(assert (forall ((|XXX0prime| Real) (|XXX1prime| Real) (|gh0prime| Real))
  (let ((a!1 (> |gh0prime| (* (+ 0 (- 1)) |XXX0prime|)))
        (a!2 (> |gh0prime| (* (+ 0 (- 1)) |XXX1prime|)))
        (a!3 (> |gh0prime| (+ (* (+ 0 1) |XXX1prime|) (+ 0 1))))
        (a!4 (> |gh0prime| (+ (* (+ 0 1) |XXX0prime|) (+ 0 100)))))
    (=> (and true
             (> |XXX0prime| (+ 0 0))
             (> |XXX1prime| (+ 0 1))
             (> |gh0prime| |XXX0prime|)
             (> |gh0prime| |XXX1prime|)
             a!1
             a!2
             (> |gh0prime| (+ 0 100))
             a!3
             a!4)
        (starexecinv1 |XXX0prime| |XXX1prime| |gh0prime|)))))
(assert (forall ((|XXX0| Real)
         (|XXX1| Real)
         (gh0 Real)
         (|XXX0prime| Real)
         (|XXX1prime| Real)
         (|gh0prime| Real))
  (let ((a!1 (and (starexecinv1 |XXX0| |XXX1| gh0)
                  (< |XXX0| (+ 0 100))
                  (= |XXX0prime| (* |XXX0| |XXX1|))
                  (= |XXX1prime| |XXX1|)
                  (= |gh0prime| (- gh0 (+ 0 1)))
                  (> (* (+ 0 1) |XXX0|) (+ 0 0))
                  (> (* (+ 0 1) |XXX1|) (+ 0 1)))))
    (=> a!1 (starexecinv1 |XXX0prime| |XXX1prime| |gh0prime|)))))
(assert (forall ((|XXX0| Real) (|XXX1| Real) (gh0 Real) )
  (let ((a!1 (and (starexecinv1 |XXX0| |XXX1| gh0)
                  (< |XXX0| (+ 0 100))
                  (< gh0 (+ 0 0))
                  (> (* (+ 0 1) |XXX0|) (+ 0 0))
                  (> (* (+ 0 1) |XXX1|) (+ 0 1)))))
    (=> a!1 false))))
(check-sat)
